Test: battleship-15-29-sat.cnf
Options: -no-inverting-opt -activity-look-freq=1
WARNING: for repeatability, setting FPU to use double precision
============================[ Problem Statistics ]=============================
|                                                                             |
|  Number of symmetries:           22                                         |
|  Number of invertingSyms:         0                                         |
|  Number of variables:           435                                         |
|  Number of clauses:            3270                                         |
|  Parse time:                   0.00 s                                       |
|                                                                             |
============================[ Search Statistics ]==============================
| Conflicts |          ORIGINAL         |          LEARNT          | Progress |
|           |    Vars  Clauses Literals |    Limit  Clauses Lit/Cl |          |
===============================================================================
|       100 |     435     3270    12615 |     1199      103    162 |  0.001 % |
|       250 |     435     3270    12615 |     1318      294    139 |  0.001 % |
|       475 |     435     3270    12615 |     1450      576    131 |  0.001 % |
|       812 |     435     3270    12615 |     1595     1037    128 |  0.001 % |
|      1318 |     435     3270    12615 |     1755      868    143 |  0.001 % |
|      2077 |     435     3270    12615 |     1931      976    181 |  0.001 % |
|      3216 |     435     3270    12615 |     2124     1426    195 |  0.001 % |
|      4924 |     435     3270    12615 |     2336     1469    193 |  0.001 % |
|      7486 |     435     3270    12615 |     2570     2487    185 |  0.001 % |
|     11330 |     435     3270    12615 |     2827     2093    188 |  0.001 % |
|     17096 |     435     3270    12615 |     3109     1915    190 |  0.001 % |
|     25745 |     435     3270    12615 |     3420     2101    191 |  0.001 % |
|     38719 |     435     3270    12615 |     3762     2818    188 |  0.001 % |
|     58180 |     435     3270    12615 |     4139     3079    190 |  0.001 % |
|     87372 |     435     3270    12615 |     4553     2701    172 |  0.001 % |
|    131161 |     435     3270    12615 |     5008     3188    202 |  0.001 % |
|    196845 |     435     3270    12615 |     5509     4324    200 |  0.001 % |
|    295371 |     435     3270    12615 |     6060     3322    183 |  0.001 % |
|    443160 |     435     3270    12615 |     6666     5977    179 |  0.001 % |
|    664843 |     435     3270    12615 |     7332     5061    208 |  0.001 % |
|    997368 |     435     3270    12615 |     8066     7187    199 |  0.001 % |
|   1496156 |     435     3270    12615 |     8872     5256    202 |  0.001 % |
|   2244338 |     435     3270    12615 |     9760     6564    215 |  0.001 % |
|   3366612 |     435     3270    12615 |    10736     8855    191 |  0.001 % |
===============================================================================
restarts              : 7164
conflicts             : 4038374        (8323 /sec)
symconflicts          : 294079         (606 /sec)
decisions             : 8948619        (0.00 % random) (18443 /sec)
propagations          : 304191420      (626922 /sec)
sympropagations       : 1231520        (2538 /sec)
conflict literals     : 774906776      (4.65 % deleted)
literals     : 774906776      (4.65 % deleted)

HEURISTIC USAGES
random                : 0           
activity w/ lookahead : 8948618     
activity no lookahead : 0           
original sp           : 0           
sym count             : 0           

Memory used           : 43.00 MB
CPU time              : 485.214 s

SATISFIABLE
